p tdp 51 98
15 25
11 20
21 34
38 44
32 41
31 39
35 39
10 50
37 41
6 12
8 45
15 33
18 20
1 22
2 12
21 30
9 23
2 50
14 27
14 22
4 19
16 27
49 51
9 43
8 17
17 51
29 42
2 5
33 45
41 46
4 13
7 37
17 39
29 35
24 38
23 44
4 12
28 47
44 46
29 40
1 36
18 28
6 26
13 46
27 30
28 48
3 27
10 18
42 50
1 8
7 33
12 29
7 29
17 24
21 32
31 43
2 25
4 44
42 43
39 48
46 51
31 38
23 51
9 34
33 39
19 43
23 36
1 46
13 34
30 34
20 40
3 39
36 37
27 28
19 21
27 44
3 21
41 49
10 32
38 51
13 36
21 27
11 32
25 43
6 35
29 39
22 32
9 42
24 34
1 43
10 43
16 19
2 9
29 36
9 22
17 33
41 42
15 34
